c This is a CNF SAT formula in the DIMACS CNF format,
c produced with the bc2cnf translator by Tommi Junttila;
c see http://users.ics.aalto.fi/tjunttil/circuits/index.html
c Cin <-> 536
c B31 <-> 537
c B30 <-> 538
c B29 <-> 539
c B28 <-> 540
c B27 <-> 541
c B26 <-> 542
c B25 <-> 543
c B24 <-> 544
c B23 <-> 545
c B22 <-> 546
c B21 <-> 547
c B20 <-> 548
c B19 <-> 549
c B18 <-> 550
c B17 <-> 551
c B16 <-> 552
c B15 <-> 553
c B14 <-> 554
c B13 <-> 555
c B12 <-> 556
c B11 <-> 557
c B10 <-> 558
c B9 <-> 559
c B8 <-> 560
c B7 <-> 561
c B6 <-> 562
c B5 <-> 563
c B4 <-> 564
c B3 <-> 565
c B2 <-> 566
c B1 <-> 567
c B0 <-> 568
c A31 <-> 569
c A30 <-> 570
c A29 <-> 571
c A28 <-> 572
c A27 <-> 573
c A26 <-> 574
c A25 <-> 575
c A24 <-> 576
c A23 <-> 577
c A22 <-> 578
c A21 <-> 579
c A20 <-> 580
c A19 <-> 581
c A18 <-> 582
c A17 <-> 583
c A16 <-> 584
c A15 <-> 585
c A14 <-> 586
c A13 <-> 587
c A12 <-> 588
c A11 <-> 589
c A10 <-> 590
c A9 <-> 591
c A8 <-> 592
c A7 <-> 593
c A6 <-> 594
c A5 <-> 595
c A4 <-> 596
c A3 <-> 597
c A2 <-> 598
c A1 <-> 599
c A0 <-> 600
p cnf 600 1601
-1 -2 0
-1 -3 0
1 3 2 0
-2 -7 0
-2 -72 0
2 72 7 0
-3 -12 0
-3 72 0
3 -72 12 0
-4 -5 0
-4 -6 0
4 6 5 0
-5 -8 0
-5 -72 0
5 72 8 0
-6 -13 0
-6 72 0
6 -72 13 0
-7 -11 0
-7 -20 0
7 20 11 0
-8 -9 0
-8 -10 0
8 10 9 0
-9 -11 0
-9 489 0
9 -489 11 0
-10 -11 0
-10 -17 0
10 17 11 0
-11 -17 0
-11 489 0
11 -489 17 0
-12 -16 0
-12 -20 0
12 20 16 0
-13 -14 0
-13 -15 0
13 15 14 0
-14 -16 0
-14 495 0
14 -495 16 0
-15 -16 0
-15 -17 0
15 17 16 0
-16 -17 0
-16 495 0
16 -495 17 0
-17 -18 0
-17 -19 0
17 19 18 0
-18 -20 0
-18 537 0
18 -537 20 0
-19 -20 0
-19 569 0
19 -569 20 0
-20 537 0
-20 569 0
20 -569 -537 0
-21 -22 0
-21 -23 0
21 23 22 0
-22 -25 0
-22 -72 0
22 72 25 0
-23 -30 0
-23 72 0
23 -72 30 0
-24 -28 0
-24 -37 0
24 37 28 0
-25 -26 0
-25 -27 0
25 27 26 0
-26 -28 0
-26 489 0
26 -489 28 0
-27 -28 0
-27 -34 0
27 34 28 0
-28 -34 0
-28 489 0
28 -489 34 0
-29 -33 0
-29 -37 0
29 37 33 0
-30 -31 0
-30 -32 0
30 32 31 0
-31 -33 0
-31 495 0
31 -495 33 0
-32 -33 0
-32 -34 0
32 34 33 0
-33 -34 0
-33 495 0
33 -495 34 0
-34 -35 0
-34 -36 0
34 36 35 0
-35 -37 0
-35 538 0
35 -538 37 0
-36 -37 0
-36 570 0
36 -570 37 0
-37 538 0
-37 570 0
37 -570 -538 0
-38 -39 0
-38 -40 0
38 40 39 0
-39 -42 0
-39 -72 0
39 72 42 0
-40 -47 0
-40 72 0
40 -72 47 0
-41 -45 0
-41 -54 0
41 54 45 0
-42 -43 0
-42 -44 0
42 44 43 0
-43 -45 0
-43 489 0
43 -489 45 0
-44 -45 0
-44 -51 0
44 51 45 0
-45 -51 0
-45 489 0
45 -489 51 0
-46 -50 0
-46 -54 0
46 54 50 0
-47 -48 0
-47 -49 0
47 49 48 0
-48 -50 0
-48 495 0
48 -495 50 0
-49 -50 0
-49 -51 0
49 51 50 0
-50 -51 0
-50 495 0
50 -495 51 0
-51 -52 0
-51 -53 0
51 53 52 0
-52 -54 0
-52 539 0
52 -539 54 0
-53 -54 0
-53 571 0
53 -571 54 0
-54 539 0
-54 571 0
54 -571 -539 0
-55 -56 0
-55 -57 0
55 57 56 0
-56 -59 0
-56 -72 0
56 72 59 0
-57 -64 0
-57 72 0
57 -72 64 0
-58 -62 0
-58 -71 0
58 71 62 0
-59 -60 0
-59 -61 0
59 61 60 0
-60 -62 0
-60 489 0
60 -489 62 0
-61 -62 0
-61 -68 0
61 68 62 0
-62 -68 0
-62 489 0
62 -489 68 0
-63 -67 0
-63 -71 0
63 71 67 0
-64 -65 0
-64 -66 0
64 66 65 0
-65 -67 0
-65 495 0
65 -495 67 0
-66 -67 0
-66 -68 0
66 68 67 0
-67 -68 0
-67 495 0
67 -495 68 0
-68 -69 0
-68 -70 0
68 70 69 0
-69 -71 0
-69 540 0
69 -540 71 0
-70 -71 0
-70 572 0
70 -572 71 0
-71 540 0
-71 572 0
71 -572 -540 0
-72 -73 0
-72 -74 0
72 74 73 0
-73 -78 0
-73 -143 0
73 143 78 0
-74 -83 0
-74 143 0
74 -143 83 0
-75 -76 0
-75 -77 0
75 77 76 0
-76 -79 0
-76 -143 0
76 143 79 0
-77 -84 0
-77 143 0
77 -143 84 0
-78 -82 0
-78 -91 0
78 91 82 0
-79 -80 0
-79 -81 0
79 81 80 0
-80 -82 0
-80 489 0
80 -489 82 0
-81 -82 0
-81 -88 0
81 88 82 0
-82 -88 0
-82 489 0
82 -489 88 0
-83 -87 0
-83 -91 0
83 91 87 0
-84 -85 0
-84 -86 0
84 86 85 0
-85 -87 0
-85 495 0
85 -495 87 0
-86 -87 0
-86 -88 0
86 88 87 0
-87 -88 0
-87 495 0
87 -495 88 0
-88 -89 0
-88 -90 0
88 90 89 0
-89 -91 0
-89 541 0
89 -541 91 0
-90 -91 0
-90 573 0
90 -573 91 0
-91 541 0
-91 573 0
91 -573 -541 0
-92 -93 0
-92 -94 0
92 94 93 0
-93 -96 0
-93 -143 0
93 143 96 0
-94 -101 0
-94 143 0
94 -143 101 0
-95 -99 0
-95 -108 0
95 108 99 0
-96 -97 0
-96 -98 0
96 98 97 0
-97 -99 0
-97 489 0
97 -489 99 0
-98 -99 0
-98 -105 0
98 105 99 0
-99 -105 0
-99 489 0
99 -489 105 0
-100 -104 0
-100 -108 0
100 108 104 0
-101 -102 0
-101 -103 0
101 103 102 0
-102 -104 0
-102 495 0
102 -495 104 0
-103 -104 0
-103 -105 0
103 105 104 0
-104 -105 0
-104 495 0
104 -495 105 0
-105 -106 0
-105 -107 0
105 107 106 0
-106 -108 0
-106 542 0
106 -542 108 0
-107 -108 0
-107 574 0
107 -574 108 0
-108 542 0
-108 574 0
108 -574 -542 0
-109 -110 0
-109 -111 0
109 111 110 0
-110 -113 0
-110 -143 0
110 143 113 0
-111 -118 0
-111 143 0
111 -143 118 0
-112 -116 0
-112 -125 0
112 125 116 0
-113 -114 0
-113 -115 0
113 115 114 0
-114 -116 0
-114 489 0
114 -489 116 0
-115 -116 0
-115 -122 0
115 122 116 0
-116 -122 0
-116 489 0
116 -489 122 0
-117 -121 0
-117 -125 0
117 125 121 0
-118 -119 0
-118 -120 0
118 120 119 0
-119 -121 0
-119 495 0
119 -495 121 0
-120 -121 0
-120 -122 0
120 122 121 0
-121 -122 0
-121 495 0
121 -495 122 0
-122 -123 0
-122 -124 0
122 124 123 0
-123 -125 0
-123 543 0
123 -543 125 0
-124 -125 0
-124 575 0
124 -575 125 0
-125 543 0
-125 575 0
125 -575 -543 0
-126 -127 0
-126 -128 0
126 128 127 0
-127 -130 0
-127 -143 0
127 143 130 0
-128 -135 0
-128 143 0
128 -143 135 0
-129 -133 0
-129 -142 0
129 142 133 0
-130 -131 0
-130 -132 0
130 132 131 0
-131 -133 0
-131 489 0
131 -489 133 0
-132 -133 0
-132 -139 0
132 139 133 0
-133 -139 0
-133 489 0
133 -489 139 0
-134 -138 0
-134 -142 0
134 142 138 0
-135 -136 0
-135 -137 0
135 137 136 0
-136 -138 0
-136 495 0
136 -495 138 0
-137 -138 0
-137 -139 0
137 139 138 0
-138 -139 0
-138 495 0
138 -495 139 0
-139 -140 0
-139 -141 0
139 141 140 0
-140 -142 0
-140 544 0
140 -544 142 0
-141 -142 0
-141 576 0
141 -576 142 0
-142 544 0
-142 576 0
142 -576 -544 0
-143 -144 0
-143 -145 0
143 145 144 0
-144 -149 0
-144 -214 0
144 214 149 0
-145 -154 0
-145 214 0
145 -214 154 0
-146 -147 0
-146 -148 0
146 148 147 0
-147 -150 0
-147 -214 0
147 214 150 0
-148 -155 0
-148 214 0
148 -214 155 0
-149 -153 0
-149 -162 0
149 162 153 0
-150 -151 0
-150 -152 0
150 152 151 0
-151 -153 0
-151 489 0
151 -489 153 0
-152 -153 0
-152 -159 0
152 159 153 0
-153 -159 0
-153 489 0
153 -489 159 0
-154 -158 0
-154 -162 0
154 162 158 0
-155 -156 0
-155 -157 0
155 157 156 0
-156 -158 0
-156 495 0
156 -495 158 0
-157 -158 0
-157 -159 0
157 159 158 0
-158 -159 0
-158 495 0
158 -495 159 0
-159 -160 0
-159 -161 0
159 161 160 0
-160 -162 0
-160 545 0
160 -545 162 0
-161 -162 0
-161 577 0
161 -577 162 0
-162 545 0
-162 577 0
162 -577 -545 0
-163 -164 0
-163 -165 0
163 165 164 0
-164 -167 0
-164 -214 0
164 214 167 0
-165 -172 0
-165 214 0
165 -214 172 0
-166 -170 0
-166 -179 0
166 179 170 0
-167 -168 0
-167 -169 0
167 169 168 0
-168 -170 0
-168 489 0
168 -489 170 0
-169 -170 0
-169 -176 0
169 176 170 0
-170 -176 0
-170 489 0
170 -489 176 0
-171 -175 0
-171 -179 0
171 179 175 0
-172 -173 0
-172 -174 0
172 174 173 0
-173 -175 0
-173 495 0
173 -495 175 0
-174 -175 0
-174 -176 0
174 176 175 0
-175 -176 0
-175 495 0
175 -495 176 0
-176 -177 0
-176 -178 0
176 178 177 0
-177 -179 0
-177 546 0
177 -546 179 0
-178 -179 0
-178 578 0
178 -578 179 0
-179 546 0
-179 578 0
179 -578 -546 0
-180 -181 0
-180 -182 0
180 182 181 0
-181 -184 0
-181 -214 0
181 214 184 0
-182 -189 0
-182 214 0
182 -214 189 0
-183 -187 0
-183 -196 0
183 196 187 0
-184 -185 0
-184 -186 0
184 186 185 0
-185 -187 0
-185 489 0
185 -489 187 0
-186 -187 0
-186 -193 0
186 193 187 0
-187 -193 0
-187 489 0
187 -489 193 0
-188 -192 0
-188 -196 0
188 196 192 0
-189 -190 0
-189 -191 0
189 191 190 0
-190 -192 0
-190 495 0
190 -495 192 0
-191 -192 0
-191 -193 0
191 193 192 0
-192 -193 0
-192 495 0
192 -495 193 0
-193 -194 0
-193 -195 0
193 195 194 0
-194 -196 0
-194 547 0
194 -547 196 0
-195 -196 0
-195 579 0
195 -579 196 0
-196 547 0
-196 579 0
196 -579 -547 0
-197 -198 0
-197 -199 0
197 199 198 0
-198 -201 0
-198 -214 0
198 214 201 0
-199 -206 0
-199 214 0
199 -214 206 0
-200 -204 0
-200 -213 0
200 213 204 0
-201 -202 0
-201 -203 0
201 203 202 0
-202 -204 0
-202 489 0
202 -489 204 0
-203 -204 0
-203 -210 0
203 210 204 0
-204 -210 0
-204 489 0
204 -489 210 0
-205 -209 0
-205 -213 0
205 213 209 0
-206 -207 0
-206 -208 0
206 208 207 0
-207 -209 0
-207 495 0
207 -495 209 0
-208 -209 0
-208 -210 0
208 210 209 0
-209 -210 0
-209 495 0
209 -495 210 0
-210 -211 0
-210 -212 0
210 212 211 0
-211 -213 0
-211 548 0
211 -548 213 0
-212 -213 0
-212 580 0
212 -580 213 0
-213 548 0
-213 580 0
213 -580 -548 0
-214 -215 0
-214 -216 0
214 216 215 0
-215 -220 0
-215 -285 0
215 285 220 0
-216 -225 0
-216 285 0
216 -285 225 0
-217 -218 0
-217 -219 0
217 219 218 0
-218 -221 0
-218 -285 0
218 285 221 0
-219 -226 0
-219 285 0
219 -285 226 0
-220 -224 0
-220 -233 0
220 233 224 0
-221 -222 0
-221 -223 0
221 223 222 0
-222 -224 0
-222 489 0
222 -489 224 0
-223 -224 0
-223 -230 0
223 230 224 0
-224 -230 0
-224 489 0
224 -489 230 0
-225 -229 0
-225 -233 0
225 233 229 0
-226 -227 0
-226 -228 0
226 228 227 0
-227 -229 0
-227 495 0
227 -495 229 0
-228 -229 0
-228 -230 0
228 230 229 0
-229 -230 0
-229 495 0
229 -495 230 0
-230 -231 0
-230 -232 0
230 232 231 0
-231 -233 0
-231 549 0
231 -549 233 0
-232 -233 0
-232 581 0
232 -581 233 0
-233 549 0
-233 581 0
233 -581 -549 0
-234 -235 0
-234 -236 0
234 236 235 0
-235 -238 0
-235 -285 0
235 285 238 0
-236 -243 0
-236 285 0
236 -285 243 0
-237 -241 0
-237 -250 0
237 250 241 0
-238 -239 0
-238 -240 0
238 240 239 0
-239 -241 0
-239 489 0
239 -489 241 0
-240 -241 0
-240 -247 0
240 247 241 0
-241 -247 0
-241 489 0
241 -489 247 0
-242 -246 0
-242 -250 0
242 250 246 0
-243 -244 0
-243 -245 0
243 245 244 0
-244 -246 0
-244 495 0
244 -495 246 0
-245 -246 0
-245 -247 0
245 247 246 0
-246 -247 0
-246 495 0
246 -495 247 0
-247 -248 0
-247 -249 0
247 249 248 0
-248 -250 0
-248 550 0
248 -550 250 0
-249 -250 0
-249 582 0
249 -582 250 0
-250 550 0
-250 582 0
250 -582 -550 0
-251 -252 0
-251 -253 0
251 253 252 0
-252 -255 0
-252 -285 0
252 285 255 0
-253 -260 0
-253 285 0
253 -285 260 0
-254 -258 0
-254 -267 0
254 267 258 0
-255 -256 0
-255 -257 0
255 257 256 0
-256 -258 0
-256 489 0
256 -489 258 0
-257 -258 0
-257 -264 0
257 264 258 0
-258 -264 0
-258 489 0
258 -489 264 0
-259 -263 0
-259 -267 0
259 267 263 0
-260 -261 0
-260 -262 0
260 262 261 0
-261 -263 0
-261 495 0
261 -495 263 0
-262 -263 0
-262 -264 0
262 264 263 0
-263 -264 0
-263 495 0
263 -495 264 0
-264 -265 0
-264 -266 0
264 266 265 0
-265 -267 0
-265 551 0
265 -551 267 0
-266 -267 0
-266 583 0
266 -583 267 0
-267 551 0
-267 583 0
267 -583 -551 0
-268 -269 0
-268 -270 0
268 270 269 0
-269 -272 0
-269 -285 0
269 285 272 0
-270 -277 0
-270 285 0
270 -285 277 0
-271 -275 0
-271 -284 0
271 284 275 0
-272 -273 0
-272 -274 0
272 274 273 0
-273 -275 0
-273 489 0
273 -489 275 0
-274 -275 0
-274 -281 0
274 281 275 0
-275 -281 0
-275 489 0
275 -489 281 0
-276 -280 0
-276 -284 0
276 284 280 0
-277 -278 0
-277 -279 0
277 279 278 0
-278 -280 0
-278 495 0
278 -495 280 0
-279 -280 0
-279 -281 0
279 281 280 0
-280 -281 0
-280 495 0
280 -495 281 0
-281 -282 0
-281 -283 0
281 283 282 0
-282 -284 0
-282 552 0
282 -552 284 0
-283 -284 0
-283 584 0
283 -584 284 0
-284 552 0
-284 584 0
284 -584 -552 0
-285 -286 0
-285 -287 0
285 287 286 0
-286 -291 0
-286 -356 0
286 356 291 0
-287 -296 0
-287 356 0
287 -356 296 0
-288 -289 0
-288 -290 0
288 290 289 0
-289 -292 0
-289 -356 0
289 356 292 0
-290 -297 0
-290 356 0
290 -356 297 0
-291 -295 0
-291 -304 0
291 304 295 0
-292 -293 0
-292 -294 0
292 294 293 0
-293 -295 0
-293 489 0
293 -489 295 0
-294 -295 0
-294 -301 0
294 301 295 0
-295 -301 0
-295 489 0
295 -489 301 0
-296 -300 0
-296 -304 0
296 304 300 0
-297 -298 0
-297 -299 0
297 299 298 0
-298 -300 0
-298 495 0
298 -495 300 0
-299 -300 0
-299 -301 0
299 301 300 0
-300 -301 0
-300 495 0
300 -495 301 0
-301 -302 0
-301 -303 0
301 303 302 0
-302 -304 0
-302 553 0
302 -553 304 0
-303 -304 0
-303 585 0
303 -585 304 0
-304 553 0
-304 585 0
304 -585 -553 0
-305 -306 0
-305 -307 0
305 307 306 0
-306 -309 0
-306 -356 0
306 356 309 0
-307 -314 0
-307 356 0
307 -356 314 0
-308 -312 0
-308 -321 0
308 321 312 0
-309 -310 0
-309 -311 0
309 311 310 0
-310 -312 0
-310 489 0
310 -489 312 0
-311 -312 0
-311 -318 0
311 318 312 0
-312 -318 0
-312 489 0
312 -489 318 0
-313 -317 0
-313 -321 0
313 321 317 0
-314 -315 0
-314 -316 0
314 316 315 0
-315 -317 0
-315 495 0
315 -495 317 0
-316 -317 0
-316 -318 0
316 318 317 0
-317 -318 0
-317 495 0
317 -495 318 0
-318 -319 0
-318 -320 0
318 320 319 0
-319 -321 0
-319 554 0
319 -554 321 0
-320 -321 0
-320 586 0
320 -586 321 0
-321 554 0
-321 586 0
321 -586 -554 0
-322 -323 0
-322 -324 0
322 324 323 0
-323 -326 0
-323 -356 0
323 356 326 0
-324 -331 0
-324 356 0
324 -356 331 0
-325 -329 0
-325 -338 0
325 338 329 0
-326 -327 0
-326 -328 0
326 328 327 0
-327 -329 0
-327 489 0
327 -489 329 0
-328 -329 0
-328 -335 0
328 335 329 0
-329 -335 0
-329 489 0
329 -489 335 0
-330 -334 0
-330 -338 0
330 338 334 0
-331 -332 0
-331 -333 0
331 333 332 0
-332 -334 0
-332 495 0
332 -495 334 0
-333 -334 0
-333 -335 0
333 335 334 0
-334 -335 0
-334 495 0
334 -495 335 0
-335 -336 0
-335 -337 0
335 337 336 0
-336 -338 0
-336 555 0
336 -555 338 0
-337 -338 0
-337 587 0
337 -587 338 0
-338 555 0
-338 587 0
338 -587 -555 0
-339 -340 0
-339 -341 0
339 341 340 0
-340 -343 0
-340 -356 0
340 356 343 0
-341 -348 0
-341 356 0
341 -356 348 0
-342 -346 0
-342 -355 0
342 355 346 0
-343 -344 0
-343 -345 0
343 345 344 0
-344 -346 0
-344 489 0
344 -489 346 0
-345 -346 0
-345 -352 0
345 352 346 0
-346 -352 0
-346 489 0
346 -489 352 0
-347 -351 0
-347 -355 0
347 355 351 0
-348 -349 0
-348 -350 0
348 350 349 0
-349 -351 0
-349 495 0
349 -495 351 0
-350 -351 0
-350 -352 0
350 352 351 0
-351 -352 0
-351 495 0
351 -495 352 0
-352 -353 0
-352 -354 0
352 354 353 0
-353 -355 0
-353 556 0
353 -556 355 0
-354 -355 0
-354 588 0
354 -588 355 0
-355 556 0
-355 588 0
355 -588 -556 0
-356 -357 0
-356 -358 0
356 358 357 0
-357 -362 0
-357 -427 0
357 427 362 0
-358 -367 0
-358 427 0
358 -427 367 0
-359 -360 0
-359 -361 0
359 361 360 0
-360 -363 0
-360 -427 0
360 427 363 0
-361 -368 0
-361 427 0
361 -427 368 0
-362 -366 0
-362 -375 0
362 375 366 0
-363 -364 0
-363 -365 0
363 365 364 0
-364 -366 0
-364 489 0
364 -489 366 0
-365 -366 0
-365 -372 0
365 372 366 0
-366 -372 0
-366 489 0
366 -489 372 0
-367 -371 0
-367 -375 0
367 375 371 0
-368 -369 0
-368 -370 0
368 370 369 0
-369 -371 0
-369 495 0
369 -495 371 0
-370 -371 0
-370 -372 0
370 372 371 0
-371 -372 0
-371 495 0
371 -495 372 0
-372 -373 0
-372 -374 0
372 374 373 0
-373 -375 0
-373 557 0
373 -557 375 0
-374 -375 0
-374 589 0
374 -589 375 0
-375 557 0
-375 589 0
375 -589 -557 0
-376 -377 0
-376 -378 0
376 378 377 0
-377 -380 0
-377 -427 0
377 427 380 0
-378 -385 0
-378 427 0
378 -427 385 0
-379 -383 0
-379 -392 0
379 392 383 0
-380 -381 0
-380 -382 0
380 382 381 0
-381 -383 0
-381 489 0
381 -489 383 0
-382 -383 0
-382 -389 0
382 389 383 0
-383 -389 0
-383 489 0
383 -489 389 0
-384 -388 0
-384 -392 0
384 392 388 0
-385 -386 0
-385 -387 0
385 387 386 0
-386 -388 0
-386 495 0
386 -495 388 0
-387 -388 0
-387 -389 0
387 389 388 0
-388 -389 0
-388 495 0
388 -495 389 0
-389 -390 0
-389 -391 0
389 391 390 0
-390 -392 0
-390 558 0
390 -558 392 0
-391 -392 0
-391 590 0
391 -590 392 0
-392 558 0
-392 590 0
392 -590 -558 0
-393 -394 0
-393 -395 0
393 395 394 0
-394 -397 0
-394 -427 0
394 427 397 0
-395 -402 0
-395 427 0
395 -427 402 0
-396 -400 0
-396 -409 0
396 409 400 0
-397 -398 0
-397 -399 0
397 399 398 0
-398 -400 0
-398 489 0
398 -489 400 0
-399 -400 0
-399 -406 0
399 406 400 0
-400 -406 0
-400 489 0
400 -489 406 0
-401 -405 0
-401 -409 0
401 409 405 0
-402 -403 0
-402 -404 0
402 404 403 0
-403 -405 0
-403 495 0
403 -495 405 0
-404 -405 0
-404 -406 0
404 406 405 0
-405 -406 0
-405 495 0
405 -495 406 0
-406 -407 0
-406 -408 0
406 408 407 0
-407 -409 0
-407 559 0
407 -559 409 0
-408 -409 0
-408 591 0
408 -591 409 0
-409 559 0
-409 591 0
409 -591 -559 0
-410 -411 0
-410 -412 0
410 412 411 0
-411 -414 0
-411 -427 0
411 427 414 0
-412 -419 0
-412 427 0
412 -427 419 0
-413 -417 0
-413 -426 0
413 426 417 0
-414 -415 0
-414 -416 0
414 416 415 0
-415 -417 0
-415 489 0
415 -489 417 0
-416 -417 0
-416 -423 0
416 423 417 0
-417 -423 0
-417 489 0
417 -489 423 0
-418 -422 0
-418 -426 0
418 426 422 0
-419 -420 0
-419 -421 0
419 421 420 0
-420 -422 0
-420 495 0
420 -495 422 0
-421 -422 0
-421 -423 0
421 423 422 0
-422 -423 0
-422 495 0
422 -495 423 0
-423 -424 0
-423 -425 0
423 425 424 0
-424 -426 0
-424 560 0
424 -560 426 0
-425 -426 0
-425 592 0
425 -592 426 0
-426 560 0
-426 592 0
426 -592 -560 0
-427 -428 0
-427 -429 0
427 429 428 0
-428 -433 0
-428 -500 0
428 500 433 0
-429 -438 0
-429 500 0
429 -500 438 0
-430 -431 0
-430 -432 0
430 432 431 0
-431 -434 0
-431 -500 0
431 500 434 0
-432 -439 0
-432 500 0
432 -500 439 0
-433 -437 0
-433 -446 0
433 446 437 0
-434 -435 0
-434 -436 0
434 436 435 0
-435 -437 0
-435 -450 0
435 450 437 0
-436 -437 0
-436 -443 0
436 443 437 0
-437 -443 0
-437 -450 0
437 450 443 0
-438 -442 0
-438 -446 0
438 446 442 0
-439 -440 0
-439 -441 0
439 441 440 0
-440 -442 0
-440 -455 0
440 455 442 0
-441 -442 0
-441 -443 0
441 443 442 0
-442 -443 0
-442 -455 0
442 455 443 0
-443 -444 0
-443 -445 0
443 445 444 0
-444 -446 0
-444 561 0
444 -561 446 0
-445 -446 0
-445 593 0
445 -593 446 0
-446 561 0
-446 593 0
446 -593 -561 0
-447 -448 0
-447 -449 0
447 449 448 0
-448 -451 0
-448 -500 0
448 500 451 0
-449 -456 0
-449 500 0
449 -500 456 0
-450 -454 0
-450 -463 0
450 463 454 0
-451 -452 0
-451 -453 0
451 453 452 0
-452 -454 0
-452 -467 0
452 467 454 0
-453 -454 0
-453 -460 0
453 460 454 0
-454 -460 0
-454 -467 0
454 467 460 0
-455 -459 0
-455 -463 0
455 463 459 0
-456 -457 0
-456 -458 0
456 458 457 0
-457 -459 0
-457 -472 0
457 472 459 0
-458 -459 0
-458 -460 0
458 460 459 0
-459 -460 0
-459 -472 0
459 472 460 0
-460 -461 0
-460 -462 0
460 462 461 0
-461 -463 0
-461 562 0
461 -562 463 0
-462 -463 0
-462 594 0
462 -594 463 0
-463 562 0
-463 594 0
463 -594 -562 0
-464 -465 0
-464 -466 0
464 466 465 0
-465 -468 0
-465 -500 0
465 500 468 0
-466 -473 0
-466 500 0
466 -500 473 0
-467 -471 0
-467 -480 0
467 480 471 0
-468 -469 0
-468 -470 0
468 470 469 0
-469 -471 0
-469 -484 0
469 484 471 0
-470 -471 0
-470 -477 0
470 477 471 0
-471 -477 0
-471 -484 0
471 484 477 0
-472 -476 0
-472 -480 0
472 480 476 0
-473 -474 0
-473 -475 0
473 475 474 0
-474 -476 0
-474 -490 0
474 490 476 0
-475 -476 0
-475 -477 0
475 477 476 0
-476 -477 0
-476 -490 0
476 490 477 0
-477 -478 0
-477 -479 0
477 479 478 0
-478 -480 0
-478 563 0
478 -563 480 0
-479 -480 0
-479 595 0
479 -595 480 0
-480 563 0
-480 595 0
480 -595 -563 0
-481 -482 0
-481 -483 0
481 483 482 0
-482 -485 0
-482 -500 0
482 500 485 0
-483 -491 0
-483 500 0
483 -500 491 0
-484 -488 0
-484 -499 0
484 499 488 0
-485 -486 0
-485 -487 0
485 487 486 0
-486 -488 0
-486 489 0
486 -489 488 0
-487 -488 0
-487 -496 0
487 496 488 0
-488 489 0
-488 -496 0
488 496 -489 0
489 0
-490 -494 0
-490 -499 0
490 499 494 0
-491 -492 0
-491 -493 0
491 493 492 0
-492 -494 0
-492 495 0
492 -495 494 0
-493 -494 0
-493 -496 0
493 496 494 0
-494 495 0
-494 -496 0
494 496 -495 0
-495 0
-496 -497 0
-496 -498 0
496 498 497 0
-497 -499 0
-497 564 0
497 -564 499 0
-498 -499 0
-498 596 0
498 -596 499 0
-499 564 0
-499 596 0
499 -596 -564 0
-500 -504 0
-500 -508 0
500 508 504 0
-501 -502 0
-501 -503 0
501 503 502 0
-502 -504 0
-502 -509 0
502 509 504 0
-503 -504 0
-503 -505 0
503 505 504 0
-504 -505 0
-504 -509 0
504 509 505 0
-505 -506 0
-505 -507 0
505 507 506 0
-506 -508 0
-506 567 0
506 -567 508 0
-507 -508 0
-507 597 0
507 -597 508 0
-508 565 0
-508 597 0
508 -597 -565 0
-509 -513 0
-509 -517 0
509 517 513 0
-510 -511 0
-510 -512 0
510 512 511 0
-511 -513 0
-511 -518 0
511 518 513 0
-512 -513 0
-512 -514 0
512 514 513 0
-513 -514 0
-513 -518 0
513 518 514 0
-514 -515 0
-514 -516 0
514 516 515 0
-515 -517 0
-515 566 0
515 -566 517 0
-516 -517 0
-516 598 0
516 -598 517 0
-517 566 0
-517 598 0
517 -598 -566 0
-518 -522 0
-518 -526 0
518 526 522 0
-519 -520 0
-519 -521 0
519 521 520 0
-520 -522 0
-520 -527 0
520 527 522 0
-521 -522 0
-521 -523 0
521 523 522 0
-522 -523 0
-522 -527 0
522 527 523 0
-523 -524 0
-523 -525 0
523 525 524 0
-524 -526 0
-524 567 0
524 -567 526 0
-525 -526 0
-525 599 0
525 -599 526 0
-526 567 0
-526 599 0
526 -599 -567 0
-527 -531 0
-527 -535 0
527 535 531 0
-528 -529 0
-528 -530 0
528 530 529 0
-529 -531 0
-529 536 0
529 -536 531 0
-530 -531 0
-530 -532 0
530 532 531 0
-531 -532 0
-531 536 0
531 -536 532 0
-532 -533 0
-532 -534 0
532 534 533 0
-533 -535 0
-533 568 0
533 -568 535 0
-534 -535 0
-534 600 0
534 -600 535 0
-535 568 0
-535 600 0
535 -600 -568 0